
  24    0


   0  13 2 3 4 5 6 7 10 11 12 20 21 22 23 
   6   4 16 13 9 8 
   9   3 19 17 15 
   1   3 17 14 13 
  10   2 17 13 
   3   2 16 13 
   9   2 15 13 
   5   1 15 
   8   1 14 
   7   1 18 
   8   1 16 
   2   1 14 
   6   1 24
   5   1 24
   7   1 24
   2   1 24
   3   1 24
   6   1 24
   2   1 24
   9   1 24
   2   1 24
   2   1 24
   2   1 24
   0   0 
